outputs/case_424.model.txt
agent_type = True
insurance_type = True
related_insurance_type = True
fee_charged = False
fee_disclosure_made = False
bank_permission_granted = False
separate_application_of_agent_and_broker_rules = False
duty_of_fidelity_exercised = True
duty_of_care_and_fidelity = True
bank_permission_and_separate_application = False
license_permitted = True
penalty = False
duty_of_care_exercised = True
written_analysis_report_provided = True
practice_certificate_held = True
written_report_and_fee_disclosure = True
license_and_guarantee_required = True
related_insurance_purchased = True
guarantee_deposit_paid = True